NAME : sim51.76093.tour
COMMENT : Length = 76093
COMMENT : Found by LKH [Keld Helsgaun] Wed Aug 29 08:38:08 2018
TYPE : TOUR
DIMENSION : 51
TOUR_SECTION
1
4
24
25
35
49
40
7
26
42
15
28
9
19
43
20
33
3
10
27
5
32
11
18
14
12
23
37
22
36
8
2
46
30
6
31
29
17
45
39
51
50
48
34
38
13
44
47
16
21
41
-1
EOF
